set NODES := 0 1 2 3 4 5;

param C :
    0   1   2   3   4   5 :=
0  -1  544  -1  282  205  620
1  173  -1  178  358  -1  976
2  -1  942  -1  234  597  -1
3  135  -1  887  -1  195  931
4  913  958  226  -1  -1  336
5  802  664  284  126  169  -1
;

set PROHIBITED := ;

param start_node := 0;
param end_node := 5;
